MLT01
Position Depot: Random
Horizon for Depot: Large
Position of customers: Mixt
Distribution of the demand: Medium
Width of time windows: Tight
Distribution of the service: Large

VEHICLE 
NUMBER 	 CAPACITY 
 5 	 	 395 
 
CUSTOMER
CUST NO. 	 XCOORD.  	 YCOORD. 	 DEMAND 	 READY TIME 	 DUE DATE 	 SERVICE TIME 
 0 	 	 341 	 	 752 	 	 0 	 	 0 	 	 3457 	 	 0 
  1 	 	 590 	 	 765 	 	 10 	 	 3346 	 	 3430 	 	 106 
  2 	 	 698 	 	 821 	 	 2 	 	 1603 	 	 1791 	 	 171 
  3 	 	 564 	 	 635 	 	 70 	 	 1031 	 	 1174 	 	 164 
  4 	 	 755 	 	 123 	 	 5 	 	 703 	 	 828 	 	 143 
  5 	 	 341 	 	 637 	 	 10 	 	 3114 	 	 3191 	 	 169 
  6 	 	 814 	 	 150 	 	 6 	 	 3208 	 	 3295 	 	 195 
  7 	 	 515 	 	 622 	 	 10 	 	 2939 	 	 3105 	 	 186 
  8 	 	 517 	 	 742 	 	 73 	 	 -6 	 	 193 	 	 149 
  9 	 	 529 	 	 521 	 	 4 	 	 2468 	 	 2565 	 	 116 
  10 	 	 324 	 	 640 	 	 81 	 	 936 	 	 1026 	 	 113 
  11 	 	 602 	 	 685 	 	 9 	 	 907 	 	 1010 	 	 100 
  12 	 	 624 	 	 117 	 	 9 	 	 1571 	 	 1701 	 	 188 
  13 	 	 583 	 	 746 	 	 55 	 	 2349 	 	 2513 	 	 102 
  14 	 	 525 	 	 557 	 	 1 	 	 100 	 	 294 	 	 184 
  15 	 	 758 	 	 900 	 	 6 	 	 2424 	 	 2511 	 	 178 
  16 	 	 690 	 	 814 	 	 2 	 	 1022 	 	 1072 	 	 134 
  17 	 	 692 	 	 764 	 	 2 	 	 2421 	 	 2473 	 	 192 
  18 	 	 716 	 	 705 	 	 2 	 	 898 	 	 983 	 	 172 
  19 	 	 297 	 	 607 	 	 9 	 	 90 	 	 282 	 	 107 
  20 	 	 501 	 	 633 	 	 66 	 	 322 	 	 460 	 	 178 
  21 	 	 272 	 	 698 	 	 8 	 	 130 	 	 197 	 	 142 
  22 	 	 642 	 	 790 	 	 8 	 	 1670 	 	 1846 	 	 184 
  23 	 	 705 	 	 806 	 	 4 	 	 681 	 	 791 	 	 140 
  24 	 	 544 	 	 661 	 	 2 	 	 1063 	 	 1120 	 	 165 
  25 	 	 582 	 	 774 	 	 8 	 	 2254 	 	 2368 	 	 141 
  26 	 	 296 	 	 595 	 	 3 	 	 2083 	 	 2227 	 	 111 
  27 	 	 620 	 	 855 	 	 94 	 	 1014 	 	 1171 	 	 148 
  28 	 	 603 	 	 746 	 	 4 	 	 2569 	 	 2646 	 	 174 
  29 	 	 701 	 	 713 	 	 8 	 	 443 	 	 505 	 	 108 
  30 	 	 680 	 	 695 	 	 3 	 	 2769 	 	 2926 	 	 197 
  31 	 	 752 	 	 899 	 	 2 	 	 1858 	 	 2035 	 	 103 
  32 	 	 417 	 	 637 	 	 60 	 	 2667 	 	 2860 	 	 152 
  33 	 	 755 	 	 108 	 	 95 	 	 757 	 	 842 	 	 162 
  34 	 	 596 	 	 751 	 	 94 	 	 564 	 	 651 	 	 175 
  35 	 	 838 	 	 133 	 	 4 	 	 1548 	 	 1634 	 	 196 
  36 	 	 738 	 	 841 	 	 76 	 	 1034 	 	 1102 	 	 111 
  37 	 	 577 	 	 767 	 	 88 	 	 2179 	 	 2274 	 	 105 
  38 	 	 452 	 	 786 	 	 3 	 	 3101 	 	 3206 	 	 170 
  39 	 	 780 	 	 110 	 	 2 	 	 795 	 	 855 	 	 114 
  40 	 	 549 	 	 103 	 	 7 	 	 768 	 	 843 	 	 135 
  41 	 	 409 	 	 572 	 	 99 	 	 1961 	 	 2075 	 	 134 
  42 	 	 562 	 	 759 	 	 3 	 	 3326 	 	 3457 	 	 106 
  43 	 	 718 	 	 110 	 	 8 	 	 1358 	 	 1433 	 	 143 
  44 	 	 501 	 	 634 	 	 92 	 	 2597 	 	 2756 	 	 195 
  45 	 	 652 	 	 739 	 	 7 	 	 1999 	 	 2073 	 	 115 
  46 	 	 646 	 	 848 	 	 3 	 	 2451 	 	 2567 	 	 200 
  47 	 	 450 	 	 583 	 	 6 	 	 1669 	 	 1784 	 	 127 
  48 	 	 497 	 	 763 	 	 3 	 	 1909 	 	 2047 	 	 200 
  49 	 	 665 	 	 851 	 	 1 	 	 957 	 	 1066 	 	 131 
  50 	 	 712 	 	 152 	 	 9 	 	 3315 	 	 3457 	 	 133 
  51 	 	 870 	 	 762 	 	 4 	 	 392 	 	 582 	 	 187 
  52 	 	 943 	 	 378 	 	 85 	 	 1394 	 	 1462 	 	 170 
  53 	 	 151 	 	 849 	 	 1 	 	 2103 	 	 2154 	 	 188 
  54 	 	 276 	 	 882 	 	 10 	 	 1624 	 	 1757 	 	 154 
  55 	 	 28 	 	 504 	 	 7 	 	 816 	 	 941 	 	 146 
  56 	 	 630 	 	 868 	 	 6 	 	 997 	 	 1093 	 	 115 
  57 	 	 298 	 	 888 	 	 8 	 	 567 	 	 695 	 	 160 
  58 	 	 916 	 	 101 	 	 10 	 	 827 	 	 955 	 	 145 
  59 	 	 344 	 	 642 	 	 3 	 	 3382 	 	 3444 	 	 122 
  60 	 	 11 	 	 136 	 	 2 	 	 2291 	 	 2453 	 	 142 
  61 	 	 442 	 	 689 	 	 5 	 	 1190 	 	 1382 	 	 148 
  62 	 	 760 	 	 44 	 	 5 	 	 1657 	 	 1851 	 	 110 
  63 	 	 194 	 	 823 	 	 4 	 	 85 	 	 211 	 	 193 
  64 	 	 535 	 	 316 	 	 72 	 	 2752 	 	 2949 	 	 105 
  65 	 	 370 	 	 831 	 	 60 	 	 680 	 	 751 	 	 190 
  66 	 	 544 	 	 893 	 	 7 	 	 2353 	 	 2488 	 	 185 
  67 	 	 461 	 	 475 	 	 2 	 	 537 	 	 668 	 	 123 
  68 	 	 522 	 	 206 	 	 5 	 	 565 	 	 632 	 	 140 
  69 	 	 200 	 	 373 	 	 5 	 	 448 	 	 583 	 	 109 
  70 	 	 402 	 	 86 	 	 2 	 	 1566 	 	 1684 	 	 146 
  71 	 	 27 	 	 437 	 	 10 	 	 744 	 	 835 	 	 129 
  72 	 	 821 	 	 500 	 	 2 	 	 1764 	 	 1887 	 	 148 
  73 	 	 507 	 	 145 	 	 5 	 	 1710 	 	 1894 	 	 139 
  74 	 	 941 	 	 322 	 	 2 	 	 620 	 	 811 	 	 196 
  75 	 	 660 	 	 352 	 	 7 	 	 662 	 	 757 	 	 175 
  76 	 	 402 	 	 231 	 	 10 	 	 2289 	 	 2362 	 	 132 
  77 	 	 403 	 	 857 	 	 85 	 	 210 	 	 363 	 	 175 
  78 	 	 419 	 	 919 	 	 4 	 	 518 	 	 573 	 	 165 
  79 	 	 871 	 	 739 	 	 6 	 	 659 	 	 856 	 	 161 
  80 	 	 505 	 	 24 	 	 86 	 	 2866 	 	 2980 	 	 128 
  81 	 	 976 	 	 595 	 	 5 	 	 618 	 	 719 	 	 102 
  82 	 	 595 	 	 781 	 	 5 	 	 1315 	 	 1444 	 	 118 
  83 	 	 403 	 	 227 	 	 6 	 	 2770 	 	 2911 	 	 101 
  84 	 	 768 	 	 780 	 	 89 	 	 2758 	 	 2948 	 	 173 
  85 	 	 20 	 	 401 	 	 62 	 	 2841 	 	 2991 	 	 144 
  86 	 	 815 	 	 191 	 	 6 	 	 2389 	 	 2566 	 	 139 
  87 	 	 368 	 	 136 	 	 4 	 	 3319 	 	 3412 	 	 179 
  88 	 	 229 	 	 202 	 	 2 	 	 1074 	 	 1237 	 	 180 
  89 	 	 862 	 	 70 	 	 7 	 	 1651 	 	 1835 	 	 154 
  90 	 	 389 	 	 621 	 	 6 	 	 2164 	 	 2303 	 	 150 
  91 	 	 786 	 	 190 	 	 64 	 	 625 	 	 788 	 	 134 
  92 	 	 516 	 	 822 	 	 4 	 	 3015 	 	 3145 	 	 116 
  93 	 	 337 	 	 119 	 	 94 	 	 567 	 	 696 	 	 118 
  94 	 	 667 	 	 753 	 	 66 	 	 387 	 	 515 	 	 107 
  95 	 	 910 	 	 41 	 	 7 	 	 881 	 	 1001 	 	 161 
  96 	 	 382 	 	 710 	 	 54 	 	 959 	 	 1116 	 	 196 
  97 	 	 355 	 	 612 	 	 67 	 	 415 	 	 566 	 	 163 
  98 	 	 637 	 	 885 	 	 5 	 	 335 	 	 424 	 	 196 
  99 	 	 691 	 	 683 	 	 4 	 	 1674 	 	 1860 	 	 154 
  100 	 	 684 	 	 18 	 	 7 	 	 1046 	 	 1233 	 	 161 
 